5 5
0 20 4 16 2 17 3 80 1 19
0 8 4 38 3 38 1 53 2 93
2 90 3 31 4 44 1 60 0 76
4 17 2 79 1 73 3 39 0 42
4 48 0 12 2 96 1 89 3 18
-1
0 2 4 5
0 4 5
0 1 3 5
0 1 2 3 5
0 2 3 4 5
-2
52 177 202
208 327
91 223 398
23 98 178 254
66 213 304 269

409 11
5 0 21 14 19
8 13 17 23 4
10 2 16 22 9
7 11 3 18 24
15 6 1 20 12
